% From JaCoP's nonogramRepository/data141.nin
 rows = 15;
 row_rule_len = 6;
 row_rules = array2d(1..rows, 1..row_rule_len, 
[
 0,0,0,0,0,2,
 0,0,0,0,0,4,
 0,0,0,0,2,2,
 4,3,2,2,6,1,
 0,5,4,1,9,1,
 0,0,5,14,5,2,
 0,0,0,1,13,5,
 0,5,3,4,1,4,
 4,2,1,2,3,4,
 0,2,4,3,6,3,
 0,2,3,2,5,2,
 0,0,0,2,1,2,
 0,0,0,2,2,2,
 0,0,0,3,3,3,
 0,0,0,1,1,1
]);

 cols = 30;
 col_rule_len = 3;
 col_rules = array2d(1..cols, 1..col_rule_len, 
[
 0,1,1,
 0,1,1,
 0,1,1,
 1,1,1,
 0,5,1,
 2,3,1,
 2,3,2,
 0,6,2,
 0,4,3,
 1,2,3,
 0,4,2,
 0,4,2,
 0,4,1,
 0,5,2,
 1,2,2,
 0,4,2,
 0,4,3,
 0,6,2,
 5,1,1,
 4,2,1,
 4,3,1,
 0,4,4,
 2,3,3,
 2,4,1,
 2,5,1,
 0,1,9,
 1,6,2,
 1,4,1,
 0,1,1,
 0,1,1
]);

